# Homework solution by Domicor (g1114128525@gmail.com)

# Settings
units	 	metal
boundary	p p p
atom_style	atomic

# Build the model
lattice		diamond 3.567 # according to the table
region		box block 0 20 0 20 0 20
create_box	1 box
create_atoms	1 box

# Specify the potential
pair_style	tersoff
pair_coeff	* * SiC.tersoff C
mass		1 12

# set the format
thermo_style 	custom step lz vol
thermo		100

# minimize the total energy
min_style	cg

label		begin
variable	t loop 21
fix		1 all deform 1 z delta 0.0 216.9E-3 units box
minimize	1.0e-6 1.0e-6 1000 10000

run 		1 post no

unfix		1

# loop

next		t
jump		homework_Young.input begin
