# This input script is used to calculate 
# the lattice constant of diamond
# Lab of Advanced Materials Design: http://lamd.hust.edu.cn/

# basic settings

# Set the style of units used for a simulation
units               metal
# Set the boundary condition for the global simulation box to be periodic
boundary            p p p
# Define what style of atoms to use in a simulation.
# This determines what attributes are associated with the atoms.
atom_style          atomic

# create simulation box

# define a fcc lattice with the equilibrium lattice constant 3.615
lattice fcc 3.615 
# This command defines a geometric region of space.
region box block 0 20 0 20 0 20 units lattice
# This command creates a simulation box based on the specified region.
create_box 1 box
# This command creates atoms on a lattice.
create_atoms 1 box

# interatomic potential

# set the pair style used to be eam (embeded atom method)
pair_style eam
# specify the parameters for eam
pair_coeff * * Cu_u3.eam

# output setting

# Set the style and content for printing thermodynamic data to the screen and log file.
thermo_style custom step lz vol
# output every 100 steps
thermo 		100
# set the algorithm used for minimizing the total energy
min_style 	cg 

#begining of loop

# set a label 
label 		begin
# define a variable 1...21
variable 	t loop 21
# change the shape of the simulation box along z direction by 0.2169 
fix 		1 all deform 1 z delta 0.0 216.9E-3 units box
# minimize the total energy of current model
minimize 	1.0e-6 1.0e-6 1000 10000

run 		1 post no
# cancel the fix defined above
unfix 		1
# move to the next value of variable 't'
next 		t
# jump to execute the commands after the label 'begin' in file 'ex02.input'
jump 		ex02.input begin
