# This input script is used to calculate 
# the lattice constant of diamond
# Lab of Advanced Materials Design: http://lamd.hust.edu.cn/

# set the units used for the simulation
units			metal
# set the boundary condition for the simulation box
boundary        p p p
# Define what style of atoms to use in a simulation.
atom_style		atomic

# define variables which represent the lattice constants
variable		i loop 20
variable        x equal 3.5+0.01*$i

# build the model
# define a diamond lattice with lattice constant equal to $x
lattice			diamond $x
# define a 5x5x5 block region
region			box block 0 5 0 5 0 5
# create a simulation box for the region defined above
create_box		1 box
# create atoms for the simulation box
create_atoms	1 box

# specify the potential
# use tersoff potential model
pair_style		tersoff
# set potential parametes 
pair_coeff		* * SiC.tersoff C
# set the mass for the 1st type of atoms
mass			1 12 

# define two variables to obtain the potential energy per atom
variable	 	n equal count(all)
variable        P equal pe/$n

# fix the temperature
# fix 1 all nve
# static energy calculation
run             0

# output current lattice constant and potential energy per atom
print			"@ $x $P"

# define the loop to run over all the lattice constants
# clear the simulation before, variables won't be cleared
clear
# move to the next value of variable 'i'
next 			i
# jump to execute the script 'ex01_2.input'
jump			ex01_2.input
